%%%mzn-stat: initTime=0.00560333
%%%mzn-stat: objective=613
%%%mzn-stat: nodes=12990
%%%mzn-stat: restarts=2
%%%mzn-stat: peakDepth=251
%%%mzn-stat: solveTime=2.316170337
%%%mzn-stat: variables=516
%%%mzn-stat: propagators=552
%%%mzn-stat: failures=10067
%%%mzn-stat: propagations=1528751
%%%mzn-stat: nogoods=10067
%%%mzn-stat: AverageConflictSize=22.16191516837191
%%%mzn-stat: NumUnitNogoodsLearned=389
%%%mzn-stat: AverageLearnedNogoodLength=74.66683222409854
%%%mzn-stat: AverageBacktrackAmount=0
%%%mzn-stat: AverageLbd=9.02771431409556
%%%mzn-stat-end
maxleg = 613;
succ = array1d(1..20,[12, 16, 13, 5, 10, 3, 8, 6, 18, 2, 1, 9, 19, 7, 17, 11, 20, 15, 4, 14]);
% time elapsed: 2.67 s
----------
%%%mzn-stat: initTime=0.00560333
%%%mzn-stat: objective=576
%%%mzn-stat: nodes=13526
%%%mzn-stat: restarts=3
%%%mzn-stat: peakDepth=290
%%%mzn-stat: solveTime=2.3643894
%%%mzn-stat: variables=516
%%%mzn-stat: propagators=552
%%%mzn-stat: failures=10198
%%%mzn-stat: propagations=1548487
%%%mzn-stat: nogoods=10198
%%%mzn-stat: AverageConflictSize=22.208374191017846
%%%mzn-stat: NumUnitNogoodsLearned=389
%%%mzn-stat: AverageLearnedNogoodLength=74.77132771131595
%%%mzn-stat: AverageBacktrackAmount=0
%%%mzn-stat: AverageLbd=9.050107864287115
%%%mzn-stat-end
maxleg = 576;
succ = array1d(1..20,[19, 16, 13, 15, 10, 3, 8, 6, 18, 2, 1, 9, 12, 7, 17, 11, 20, 5, 4, 14]);
% time elapsed: 2.71 s
----------
%%%mzn-stat: initTime=0.00560333
%%%mzn-stat: objective=544
%%%mzn-stat: nodes=13863
%%%mzn-stat: restarts=4
%%%mzn-stat: peakDepth=290
%%%mzn-stat: solveTime=2.382948902
%%%mzn-stat: variables=516
%%%mzn-stat: propagators=552
%%%mzn-stat: failures=10245
%%%mzn-stat: propagations=1556230
%%%mzn-stat: nogoods=10245
%%%mzn-stat: AverageConflictSize=22.230746705710104
%%%mzn-stat: NumUnitNogoodsLearned=389
%%%mzn-stat: AverageLearnedNogoodLength=74.768570034163
%%%mzn-stat: AverageBacktrackAmount=0
%%%mzn-stat: AverageLbd=9.061005368472426
%%%mzn-stat-end
maxleg = 544;
succ = array1d(1..20,[19, 16, 13, 5, 15, 3, 8, 6, 18, 14, 1, 9, 12, 20, 17, 11, 10, 2, 4, 7]);
% time elapsed: 2.72 s
----------
%%%mzn-stat: initTime=0.00560333
%%%mzn-stat: objective=525
%%%mzn-stat: nodes=14208
%%%mzn-stat: restarts=5
%%%mzn-stat: peakDepth=290
%%%mzn-stat: solveTime=2.4071821829999998
%%%mzn-stat: variables=516
%%%mzn-stat: propagators=552
%%%mzn-stat: failures=10298
%%%mzn-stat: propagations=1566307
%%%mzn-stat: nogoods=10298
%%%mzn-stat: AverageConflictSize=22.24888327830647
%%%mzn-stat: NumUnitNogoodsLearned=389
%%%mzn-stat: AverageLearnedNogoodLength=74.80879782482036
%%%mzn-stat: AverageBacktrackAmount=0
%%%mzn-stat: AverageLbd=9.075354437754903
%%%mzn-stat-end
maxleg = 525;
succ = array1d(1..20,[19, 16, 13, 12, 15, 3, 8, 6, 18, 14, 1, 9, 2, 20, 17, 11, 10, 5, 4, 7]);
% time elapsed: 2.75 s
----------
%%%mzn-stat: initTime=0.00560333
%%%mzn-stat: objective=524
%%%mzn-stat: nodes=14529
%%%mzn-stat: restarts=6
%%%mzn-stat: peakDepth=290
%%%mzn-stat: solveTime=2.429926493
%%%mzn-stat: variables=516
%%%mzn-stat: propagators=552
%%%mzn-stat: failures=10350
%%%mzn-stat: propagations=1575726
%%%mzn-stat: nogoods=10350
%%%mzn-stat: AverageConflictSize=22.300483091787438
%%%mzn-stat: NumUnitNogoodsLearned=389
%%%mzn-stat: AverageLearnedNogoodLength=74.82502415458937
%%%mzn-stat: AverageBacktrackAmount=0
%%%mzn-stat: AverageLbd=9.094685990338164
%%%mzn-stat-end
maxleg = 524;
succ = array1d(1..20,[19, 16, 13, 12, 15, 3, 8, 6, 18, 14, 1, 9, 2, 20, 17, 11, 10, 5, 4, 7]);
% time elapsed: 2.77 s
----------
%%%mzn-stat: initTime=0.00560333
%%%mzn-stat: objective=437
%%%mzn-stat: nodes=14851
%%%mzn-stat: restarts=7
%%%mzn-stat: peakDepth=290
%%%mzn-stat: solveTime=2.45546991
%%%mzn-stat: variables=516
%%%mzn-stat: propagators=552
%%%mzn-stat: failures=10413
%%%mzn-stat: propagations=1585162
%%%mzn-stat: nogoods=10413
%%%mzn-stat: AverageConflictSize=22.315278978200325
%%%mzn-stat: NumUnitNogoodsLearned=389
%%%mzn-stat: AverageLearnedNogoodLength=74.8322289445885
%%%mzn-stat: AverageBacktrackAmount=0
%%%mzn-stat: AverageLbd=9.124939978872563
%%%mzn-stat-end
maxleg = 437;
succ = array1d(1..20,[19, 12, 13, 17, 15, 3, 14, 6, 18, 5, 1, 9, 2, 8, 20, 11, 10, 16, 4, 7]);
% time elapsed: 2.80 s
----------
%%%mzn-stat: initTime=0.00560333
%%%mzn-stat: objective=416
%%%mzn-stat: nodes=15243
%%%mzn-stat: restarts=9
%%%mzn-stat: peakDepth=290
%%%mzn-stat: solveTime=2.503784495
%%%mzn-stat: variables=516
%%%mzn-stat: propagators=552
%%%mzn-stat: failures=10588
%%%mzn-stat: propagations=1615581
%%%mzn-stat: nogoods=10588
%%%mzn-stat: AverageConflictSize=22.32867397053268
%%%mzn-stat: NumUnitNogoodsLearned=389
%%%mzn-stat: AverageLearnedNogoodLength=74.89242538723083
%%%mzn-stat: AverageBacktrackAmount=0
%%%mzn-stat: AverageLbd=9.225255005666792
%%%mzn-stat-end
maxleg = 416;
succ = array1d(1..20,[19, 12, 6, 17, 4, 13, 2, 14, 18, 5, 1, 9, 8, 20, 10, 11, 7, 16, 3, 15]);
% time elapsed: 2.85 s
----------
==========
% time elapsed: 98.74 s
%%%mzn-stat: initTime=0.00560333
%%%mzn-stat: objective=416
%%%mzn-stat: nodes=339158
%%%mzn-stat: restarts=1350
%%%mzn-stat: peakDepth=290
%%%mzn-stat: solveTime=98.393139282
%%%mzn-stat: variables=516
%%%mzn-stat: propagators=552
%%%mzn-stat: failures=260197
%%%mzn-stat: propagations=27591279
%%%mzn-stat: nogoods=260197
%%%mzn-stat: AverageConflictSize=42.39108060431135
%%%mzn-stat: NumUnitNogoodsLearned=390
%%%mzn-stat: AverageLearnedNogoodLength=86.7619150105497
%%%mzn-stat: AverageBacktrackAmount=0
%%%mzn-stat: AverageLbd=12.591632493841205
%%%mzn-stat-end
